# Crystalline cfc Gold : computation of the total energy
# Slabs + vacuum (50 / 50 )

ndtset 1
nstep  7

#mixing parameters
iscf 2 
diemix 0.3
iprcel 75
diemac 100

## system dependant information
acell   3*4.0782 angstroms
ecut    3.0 
znucl   79
kptopt  1
ngkpt   2 2 1
nshiftk 2
shiftk  0.5 0.0 0.0
        0.0 0.5 0.0


 rprim    0.500000000000000      -0.500000000000000        0.00000000000000
          0.500000000000000       0.500000000000000        0.00000000000000
           0.00000000000000        0.00000000000000        8.00000000000000
 natom             8
 nband             6
 typat             8*1
 xred
   0.00000000000000        0.00000000000000       1.249999996844053E-007
   0.500000000000000       0.500000000000000       6.250012499999968E-002
   0.00000000000000        0.00000000000000       0.125000000000000
   0.500000000000000       0.500000000000000       0.187500000000000
   0.00000000000000        0.00000000000000       0.250000000000000
   0.500000000000000       0.500000000000000       0.312500000000000
   0.00000000000000        0.00000000000000       0.375000000000000
   0.500000000000000       0.500000000000000       0.437500000000000

   
ntypat 1       
occopt 4
tsmear 0.005
toldfe 1.0d-11
prtwf 0

