# Ni2 molecule

ndtset 3

# First dataset : no atomic potential shifts
natvshift1  0

# Other datasets : turn on the atomic potential shifts for d levels
natvshift   5

# Second dataset : shifts of d levels
atvshift2 0 0 0.001 0 0  0 0 0.001 0 0 # shift of m=0 d level, first atom spin up/down
          0 0 0.001 0 0  0 0 0.001 0 0 # shift of m=0 d level, second atom spin up/down
atvshift3 0 0.001 0 0.001 0  0 0.001 0 0.001 0 # shift of m=1 and m=-1 d level, first atom spin up/down
          0 0.001 0 0.001 0  0 0.001 0 0.001 0 # shift of m=1 and m=-1 d level, second atom spin up/down

# Common data
acell 2*11 11 
diemac 2.0d0
diemix 0.2d0
ecut 7 
getwfk -1
pawecutdg 20
occopt 7
tsmear 0.01
natom 2
nsppol 2
nspden 2
nstep 40 
nsym 1
ntypat 1
rprim  1 0 0 
       0 1 0 
       0 0 1
toldfe 1.0d-8
typat 2*1 
usepawu 1
dmatpuopt  1   # choose expression of the density matrix
lpawu 2
xcart   2*0  -2.1    2*0   2.1
znucl 28
