# fcc Gd.
# This calculation is not converged with respect to k-points and plane wave cutoff.
# In the fcc symetry, real harmonics as defined in Abinit do not diagonalise the density matrix.
# With dmatudiag =1, the diagonalization of the density matrix is done.
# One can thus check the degeneracy of the density matrix (cf output file).
# Eigenvectors  corresponds to cubic harmonics which diagonalize the density matrix in the cubic symetry.
#DATASETS AND OPTIONS
nstep 30
tolvrs 1.0d-5
getwfk -1
pawprtvol 2 
prtvol 3 

#CONVERGENCE PARAMETERS.
iscf 17 
ecut 7
pawecutdg  12
occopt 7
tsmear 5.0d-3
nband  20 

#PHYSICAL PARAMETERS.
nsppol 2
nspden 2
spinat 0 0 1 
natom 1 ntypat  1 typat  1
znucl  64.0 
xred  0   0   0
acell 3*7.4
rprim 0.0 1/2 1/2
      1/2 0.0 1/2
      1/2 1/2 0.0

## K-POINTS
kptopt 1 
nshiftk 4
kptrlatt 2 0 0 0 2 0 0 0 2
shiftk 1/2 1/2 1/2
       1/2 0.0 0.0
       0.0 1/2 0.0
       0.0 0.0 1/2


# LDA+U
usepawu    1
lpawu   3    # LDA+U CORRECTION ON f-ORBITALS
upawu  0.22
jpawu  0.0368
dmatpuopt 2  # CHOOSE EXPRESSION OF THE DENSITY MATRIX.
dmatudiag 1  # DIAGONALISE DENSITY MATRIX 
usedmatpu 10 # IMPOSE DENSITY MATRIX IN THE FIRST 10 STEPS
dmatpawu  1.0 0.0 0.0 0.0 0.0 0.0 0.0
          0.0 1.0 0.0 0.0 0.0 0.0 0.0
          0.0 0.0 1.0 0.0 0.0 0.0 0.0
          0.0 0.0 0.0 1.0 0.0 0.0 0.0
          0.0 0.0 0.0 0.0 1.0 0.0 0.0
          0.0 0.0 0.0 0.0 0.0 1.0 0.0
          0.0 0.0 0.0 0.0 0.0 0.0 1.0

          0.0 0.0 0.0 0.0 0.0 0.0 0.0
          0.0 0.0 0.0 0.0 0.0 0.0 0.0
          0.0 0.0 0.0 0.0 0.0 0.0 0.0
          0.0 0.0 0.0 0.0 0.0 0.0 0.0
          0.0 0.0 0.0 0.0 0.0 0.0 0.0
          0.0 0.0 0.0 0.0 0.0 0.0 0.0
          0.0 0.0 0.0 0.0 0.0 0.0 0.0
