#  Isolated Bi atom. Try alchemical mixing for spin-orbit.

  ndtset   4

    npsp   3  # Read three pseudopotentials
   znucl   83.d0  83.d0  83.d0
  so_psp   2      2      0

   ntypat  2            # Two types of pseudo-atom
 ntypalch  1            # One pseudo-atom is alchemical
  mixalch1 0.999 0.001
  mixalch2 0.5   0.5
  mixalch3 0.001 0.999
  mixalch4 1.0   0.0   # Irrelevant, as only the first type of psp is needed for dtset 4,
                       # but needed for the job to run
    typat  2  
    typat4 1  
    natom  1


   nband   8
 nspinor   2
  nsppol   1
  nspden   1
    nsym   1

  occopt   7
  tsmear   0.02

#Common data
   acell   3*10   #This parameter is of course for testing purposes only
    xred   3*0.0

    ecut   8
   nstep   20

  toldfe   1.0d-7

