# Crystalline Cu2O : computation of the total energy
# and EFG tensors in LDA+U formalism
# Note: Cu2O is a nonmagnetic insulator
#

#Specific to ground state calculation


usepawu 1 # LDA+U with PAW data
lpawu 2 -1 # d electrons of copper treated with LDA+U, oxygen not treated
upawu 0.30 0.0 # U for copper is 0.30 Ha
jpawu 0.03 0.0 # J for copper is 0.03 Ha
dmatpuopt  1   # choose expression of the density matrix
nspden 2 # must use nspden = 2 for LDA+U currently
nsppol 2
ixc 1 # PAW data was made with ixc = 2 but have to change to ixc 1 for LDA+U


ecut 10 # use 20 for converged answer
pawecutdg 30 # use 50 for converged answer
pawmixdg 1
toldfe 1.0D-8
prtwf 0
prtden 0
prteig 0

prtefg 2 # get full report of efg tensors
quadmom 0.22 -0.0261 # quad moment for copper and oxygen

#######################################################################
#Common input variables


#Definition of the unit cell
acell 3*4.2676 angstrom # experimental structure of Cu2O
#kspace
kptopt 1
ngkpt 2 2 2 # use ngkpt 6 6 6 for converged answer

#Definition of the atom types
ntypat 2               # There are two types of atom
znucl 29 8            # The keyword "znucl" refers to the atomic number of the 
                       # possible type(s) of atom. The pseudopotential(s) 
                       # mentioned in the "files" file must correspond
                       # to the type(s) of atom.

#Definition of the atoms
natom  6              
natrd  6 
typat 2*2 4*1 # Cu O 

xred                     # This keyword indicate that the location of the atoms
0.0 0.0 0.0
0.5 0.5 0.5
0.25 0.25 0.25
0.25 -0.25 -0.25
-0.25 0.25 -0.25
-0.25 -0.25 0.25

# band information
occopt 1
#Definition of the SCF procedure
nstep 50               # Maximal number of SCF cycles
iscf 17
