# BeH TDDFT calculation

 ndtset  4

# Type of molecules to be studied
 natom     2
 ntypat    2
 typat     1 2
 znucl     1 4
 nsppol    2
 
# Primitive cell choosed and position of atoms inside it 
 acell      14 14 14    
 xcart      5.7193832970E+00  8 8
            8.2806553486E+00  8 8

 # Parameters for the SCF calculation            
 ecut      8
 nstep     14
 ixc       1
 
# It's an isolated system so nkpt=1, other thinghs I took from
# the tutorial 
 nkpt      1
 diemac    1.5
 diemix    0.5

#Parameters for several datasets (but not all)
 mkmem     1
 nband    20
 getden    1
 getwfk    2
 tolwfr   1.0d-9  

# First step.
# Calculation of ground state.
 iscf1     7
 tolwfr1   1.0d-15
 nband1    3
 prtden1   1
 getden1   0
 getwfk1   0

# Second step.
# Non-SCF Calculation of a larger number of states
 iscf2     -2
 getwfk2    0

# TDDFT excitation mkmem=1
 iscf3    -1

# TDDFT excitation mkmem=0
 iscf4    -1
 mkmem4    0

