# Hydrogen diatomic molecule for built-in tests--broyden minimization
 acell 12 10 10 
 diemac 1.0d0   diemix 0.5d0
 ecut 4.5

 ionmov  2 
 iprcch 1

 istatr 99

 kpt   3*0.25
 natom  2 
 nband 1

 nkpt 1
 nline 3   nstep 7
 nsym 8 ntime  4 ntypat  1
 occ 2
 occopt 0

 prtvol  10

 rprim 1 0 0  0 1 0  0 0 1
 symrel  1  0  0   0  1  0   0  0  1
        -1  0  0   0  1  0   0  0  1
         1  0  0   0 -1  0   0  0  1
        -1  0  0   0 -1  0   0  0  1
         1  0  0   0  1  0   0  0 -1
        -1  0  0   0  1  0   0  0 -1
         1  0  0   0 -1  0   0  0 -1
        -1  0  0   0 -1  0   0  0 -1
 tnons 24*0
 toldff 5.0d-6
 tolmxf 5.0d-5
 typat  2*1 
 wtk  1
 xangst -0.385 0 0   0.385  0 0
 znucl  1.0
