# Crystalline silicon
# Calculation of the GW corrections

ndtset      10
udtset      5  2

# Calculation of the screening (epsilon^-1 matrix)
optdriver?1  3
ecuteps      6.0
nband?1      25

# Convergence with respect to the number of planewaves in wavefunctions to calculate epsilon^-1
ecutwfn:?   3.0
ecutwfn+?   1.0

# Calculation of the Self-Energy matrix elements (GW corrections)
optdriver?2  4
getscr?2     -1
ecutwfn?2    5.0
ecutsigx      6.0
nband?2      100

nkptgw        1
kptgw        0.000    0.000    0.000
bdgw         4  5


# GW calculation general parameters
getkss       1
ppmfrq      16.7 eV


# Definition of the unit cell: fcc
acell  3*10.217        # This is equivalent to   10.217 10.217 10.217
rprim  0.0  0.5  0.5   # FCC primitive vectors (to be scaled by acell)
       0.5  0.0  0.5
       0.5  0.5  0.0

# Definition of the atom types
ntypat  1         # There is only one type of atom
znucl 14          # The keyword "znucl" refers to the atomic number of the
                  # possible type(s) of atom. The pseudopotential(s)
                  # mentioned in the "files" file must correspond
                  # to the type(s) of atom. Here, the only type is Silicon.

# Definition of the atoms
natom 2           # There are two atoms
typat 1 1         # They both are of type 1, that is, Silicon.
xred              # Reduced coordinate of atoms
      0.0  0.0  0.0
      0.25 0.25 0.25

# Definition of the planewave basis set (at convergence 16 Rydberg 8 Hartree)
ecut 8.0          # Maximal kinetic energy cut-off, in Hartree

# Use only symmorphic operations
symmorphi 0
# This line added when defaults were changed (v5.3) to keep the previous, old behaviour
  iscf 5
