#Spin
nsppol 1
nspden 2
nspinor 1
spinat 0 0 1
       0 0 -1
       0 0 0
       0 0 0

#Parameters
nstep  50
ecut 15
pawecutdg 30
iscf 17
toldfe 1.0d-5
nband  40
occopt 1

#Structural parameters
natom 4
ntypat 2
typat 1 1 2 2
znucl 28 8
xred 0 0 0
    0.0 0.0 0.5
    0.5 0.5 0.25
    0.5 0.5 0.75

acell   3*7.92

rprim 0.0 1/2 1/2
      1/2 0.0 1/2
      1.0 1.0 0.0

# Kpoint Grid
kptopt 1 
ngkpt 4 4 4
