# Nickel ferromagnetic fcc structure for testing ecut convergence

   ndtset 8
   ecut:  8.
   ecut+  2.

pawecutdg 40.

  nstep   50
 tolvrs   1.0d-9
 occopt   7
 tsmear   0.0075

 ntypat   1
  acell   3*3.52 angstrom
  rprim   0.0 1/2 1/2
          1/2 0.0 1/2
          1/2 1/2 0.0
  natom   1
  typat   1
   xred   0.0  0.0  0.0
  znucl   28
  nband   14

  nsppol  2
  spinat  0. 0. 4.
 
 kptopt   1
  ngkpt   6 6 6
nshiftk   4
 shiftk   1/2 1/2 1/2
          1/2 0.0 0.0
          0.0 1/2 0.0
          0.0 0.0 1/2
 
 getwfk -1
 prteig 0 prtden 0
 optforces 2
