# =======================================
# Input for PAW1 tutorial
# Diamond at experimental volume
# =======================================

#Datasets: convergence on ecut
ndtset 9   ecut: 8. ecut+  2.

#Cell and atoms definition
 acell 3*3.567 angstrom
 rprim 0.0 1/2 1/2
       1/2 0.0 1/2
       1/2 1/2 0.0
 ntypat 1  natom 2  typat 2*1
 xred 0.0 0.0 0.0
      1/4 1/4 1/4
 znucl 6  nband 6

#Basis definitions
 ecut 15.
 ecutsm 0.5
 pawecutdg 50.

#SCF cycle parameters
 tolvrs 1.0d-10
 nstep 20

#K-points and sym
 nsym 0       
 occopt 1
 kptopt 1  ngkpt 6 6 6
 nshiftk 4
 shiftk 0.5 0.5 0.5
        0.5 0.0 0.0
        0.0 0.5 0.0
        0.0 0.0 0.5

#I/O parameters
 optforces 2 optstress 1
 prtwf 1 prtden 0  prteig 0
 getwfk -1
