 #test germanium linear chain with xc. Do not use multi-data features.
 #Step 1 : ground-state calc.

 acell   3*10.00
 ecut  1.20
 iscf 3 
 ixc 3   diemac 1.5

 kpt
   0.00000   0.00000   0.12500
   0.00000   0.00000   0.37500
 natom  2 nband 4
 ngfft  3*16  nkpt  2
 nstep 30
 nsym   1 ntypat  1
 occopt 1
 rprim   1.0  0.0  0.0    
         0.0  1.0  0.0   
         0.0  0.0  1.0
 symrel  1  0  0   0  1  0   0  0  1
 xred    0.0  0.0  0.0
         0.0  0.0  0.3
 tnons 3*0.0
 typat  1 1         
 tolwfr  1.e-22
 wtk 2*0.5
 znucl  32
