#   FCC Al  
#   At fixed tsmear (=0.04), check the convergence with respect
#   to the number of k points, for different occopt.
#   Do not treat occopt=6, because of the SCF problems.

 ndtset 9  udtset 3 3

 ngkpt1?  4 4 4      nkpt1? 10
 ngkpt2?  6 6 6      nkpt2? 28
 ngkpt3?  8 8 8      nkpt3? 60

 occopt?1 4
 occopt?2 5
 occopt?3 7

 acell 3*7.60

 ecut 3 

 enunit 2  
 getwfk -1
 intxc 1
 ixc   1
 kptopt 1
 natom  1 nband 4

 nsym  24 
 nstep 8
 ntypat  1
 rprim   0 .5 .5  .5 0 .5  .5 .5 0
 nshiftk 4
 shiftk 0.5 0.5 0.5
        0.5 0.0 0.0
        0.0 0.5 0.0
        0.0 0.0 0.5
 symrel
       1  0  0    0  1  0    0  0  1    
       0  1 -1    1  0 -1    0  0 -1    
      -1  0  0   -1  0  1   -1  1  0    
       0 -1  1    0 -1  0    1 -1  0    
      -1  0  1   -1  0  0   -1  1  0
       0 -1  0    0 -1  1    1 -1  0
       0 -1  1    1 -1  0    0 -1  0
       0  1 -1    0  0 -1    1  0 -1
       0  0 -1    1  0 -1    0  1 -1
      -1  1  0   -1  0  1   -1  0  0
       1  0 -1    0  1 -1    0  0 -1    
       1 -1  0    0 -1  0    0 -1  1    
      -1  0  0   -1  1  0   -1  0  1    
       0  1  0    1  0  0    0  0  1    
       0  0  1    0  1  0    1  0  0    
       1  0  0    0  0  1    0  1  0    
       0  0  1    1  0  0    0  1  0    
       0  1  0    0  0  1    1  0  0    
      -1  0  1   -1  1  0   -1  0  0
       0  0 -1    0  1 -1    1  0 -1
       1  0 -1    0  0 -1    0  1 -1
       1 -1  0    0 -1  1    0 -1  0
       0 -1  0    1 -1  0    0 -1  1
      -1  1  0   -1  0  0   -1  0  1
 tnons   72*0.0d0
 toldfe 1.0d-8 
 typat  1 
 xred  0.0 0.0 0.0
 znucl 13.0

# This line added when defaults were changed (v5.3) to keep the previous, old behaviour
  iscf 5
