# Test Langevin Dynamics : 2 Ge atoms in LDA
# The initial temperature 1000K will be set by random velocities
# 3 MD steps with decreasing T to 500K 
# dtion = 200

acell 3*8.000           !cell size
mdwall 1.00             !forbidden border 1 bohr on each side of the cell
# this option is useful for clusters, not for liquids (set to -10000 for no effect)
friction  0.0015        !friction coefficient
delayperm 200000        !try to commute every 200000 steps (no effect here)
signperm  1               !imc=1 favor alternation in permutation

amu 72.59            !reduced masses, actual 69.723  14.0067 
diemac 1.0d0
diemix 0.333d0
dtion 200

ecut 4      

ixc 7         
ionmov 9       ! 9 is Langevin  8 is nose
iscf 5

kpt 3*0.00
natom 2    
nband 6 
nkpt 1
nline 10

occopt 3
tsmear 0.002 

nstep 50
nsym 1

ntypat 1
symrel  1  0  0   0  1  0   0  0  1
tnons 3*0.0D0
tolvrs 1.0d-2        !typical convergence criteria for dynamics simulatio 
typat 1  1   
wtk 1 
znucl 32 

ntime 3             !3 MD steps 
mditemp 1000         !initial  temp
mdftemp 500          !final temp
  
xcart  2.000d0  4.000d0   4.000d0 
       6.590d0  4.000d0   4.000d0


