# Li compressed simple cubic, metallic. 
# Frozen-phonon calculations

 ndtset 3

#Unperturbed geometry
    xred1 0.0   0.0  0.0
          0.25  0.0  0.0
          0.50  0.0  0.0
          0.75  0.0  0.0
  getwfk1  0

#Transverse frozen-phonon at q=0.5 0.0 0.0
    xred2 0.0   0.0  0.001
          0.25  0.0 -0.001
          0.50  0.0  0.001
          0.75  0.0 -0.001

#Transverse frozen-phonon at q=0.25 0.0 0.0
    xred3 0.0   0.0  0.002
          0.25  0.0  0.000
          0.50  0.0 -0.002
          0.75  0.0  0.000



#Common data
 acell  19.60 2*4.90
 chkprim 0

 ntypat 1
 znucl 3.0
 natom 4
 typat 4*1

 nstep 20 
 tolvrs 1.0d-16

 ecut 5.0

 nband 12
 getwfk 1

 occopt 7
 tsmear 0.04

 kptopt 1
 ngkpt  1 4 4
 shiftk
   0.5 0.5 0.5

# This line added when defaults were changed (v5.3) to keep the previous, old behaviour
  iscf 5
