# Li compressed simple cubic, metallic. 
# Frozen-phonon calculations

 ndtset 2

#Unperturbed geometry
    xred1 0.0   0.0  0.0
          0.50  0.0  0.0
  getwfk1  0

#Transverse frozen-phonon at q=0.5 0.0 0.0
    xred2 0.0   0.0  0.001
          0.50  0.0 -0.001

#Common data
 acell  9.80 2*4.90
 chkprim 0

 ntypat 1
 znucl 3.0
 natom 2
 typat 2*1

 nstep 20 
 tolvrs 1.0d-16

 ecut 5.0
 ecutsm 1.0
 dilatmx 1.10

 nband 12
 getwfk 1

 occopt 7
 tsmear 0.04

 kptopt 1
 ngkpt  2 4 4
 shiftk
   0.5 0.5 0.5

# This line added when defaults were changed (v5.3) to keep the previous, old behaviour
  iscf 5
