# BCC Nb : computation of phonon frequencies at 
# one quarter of the Gamma-H line 

 ndtset 2

#Dataset 1 : SCF 

  kptopt1  1
  tolvrs1  1.0d-16
 
#Dataset 2 : RF at q=-1/8 1/8 1/8

  getwfk2  1
  kptopt2  3
    nqpt2  1
     qpt2 -0.125d0 0.125d0 0.125d0
 rfatpol2  1 1
   rfdir2  1 1 1
  rfphon2  1
  tolvrs2  1.0d-9

#Common data

 ecut 7.0 
 acell 3*6.12 
 enunit 2  
 ixc    1
 natom  1 
 nband 6

 nstep 30
 ntypat  1
 occopt 4
 rprim  -.5  .5  .5  
         .5 -.5  .5  
         .5  .5 -.5

 kptrlatt 4  0  4
          0  4  4
         -4 -4  0
 nshiftk 1
 shiftk 0.5 0.5 0.5

 tsmear 0.015
 typat  1 
 xred  0.0 0.0 0.0
 znucl 41.0

# This line added when defaults were changed (v5.3) to keep the previous, old behaviour
  iscf 5
