# Fake H crystal.
# Test triclinic and monoclinic spacegroups

ndtset 15

spgroup: 1 
spgroup+ 1

angdeg1 70 80 85    ! triclinic
angdeg2 70 80 85    ! triclinic
angdeg  90 80 90    ! the others are monoclinic

natom1 1
natom2 2
natom3 2
natom4 2
natom5 2
natom6 2
natom7 2
natom8 2
natom9 2
natom10 4
natom11 4
natom12 4
natom13 4
natom14 4
natom15 4

# Common data
prtvol -1          # stop in abinis (main program), before call gstate.
brvltt -1          # important to reduce the conventional cell to primitive,
                   # and allow the recognition of space group
acell 7 8 9
ntypat 1      
znucl 1    
natrd 1
xred 0.17 0.15 0.11
typat 1 
ecut 1
nkpt 1     
nline 1
nstep 1      
toldfe 1.0d-6  
# This line added when defaults were changed (v5.3) to keep the previous, old behaviour
  iscf 5
