# H2 molecule : study of translational and rotational modes

 ndtset   3 
 ecut      12.0
 ecutsm       1.0
 ixc          1
 iscf         3
 mffmem       0
  ngkpt       2 2 2  !! Better to use this than the gamma point
 diemac       2      
 nband        1

### First data set : geometry optimization

 kptopt1     1
 tolmxf1     1.0d-5
  ntime1    10 
 toldff1     1.0d-6
 ionmov1     3 

### Second data set : accurate wave function calculation ###

   kptopt2      1
   tolwfr2      1.0d-22
   getwfk2      -1
 getxcart2     -1

### Third data set : atomic displacement ###

  kptopt3      2
    nqpt3      1
     qpt3      0.0 0.0 0.0
  rfphon3      1
 rfatpol3      1  2
   rfdir3      1 1 1
  tolvrs3      1.0d-9
  getwfk3     -1 
getxcart3     -2

### Structure parameters ###

 acell 3*14.0
 natom   2
 nstep  40
     xcart  7.2669124276E-01  0.0000000000E+00  0.0000000000E+00
           -7.2669124276E-01  0.0000000000E+00  0.0000000000E+00
 ntypat   1   
 typat    1  1
 znucl  1.00
