#Test linear chain of atoms
#Two different psps (Si+Ge), and examine different mixing coefficients

 ndtset 3
#ndtset 4   ! Does not work on the PIII, for the time being ...

 npsp        2            # Two pseudopotentials to be read
 znucl       14.0  32.0   # znucl(npsp) : Silicon then Germanium

#Data common to dataset 1, 2, 3
   ntypat    1           # Only one type of pseudo-atom
 ntypalch    1            # This pseudo-atom is alchemical
  mixalch1   0.2   0.8    
  mixalch2   0.5   0.5    
  mixalch3   0.001 0.999  
    typat    1 1         

#Data for dataset 4 : pure Germanium
   ntypat4   2            # Number of types of psps is equal to the number of pseudo atom
 ntypalch4   0            # No alchemical psps
    typat4   2 2          # Take pure Germanium

#COMMON DATA

#Ground state
 nqpt 0  iscf  3   

#Common data
 acell   3*10.00
 amu 1.0d0
 densty  1.1    ! This is needed to have exactly the same initialisation as previous tests
 diemac 1.5
 ecut  1.20
 ixc 3
 kpt
   0.00000   0.00000  -0.37500
   0.00000   0.00000  -0.12500
   0.00000   0.00000   0.12500
   0.00000   0.00000   0.37500
 natom  2 nband 4
 ngfft  3*16  nkpt  4
 nstep 30
 nsym   1 
 occopt 1
 rprim   1.0  0.0  0.0    
         0.0  1.0  0.0   
         0.0  0.0  1.0
 symrel  1  0  0   0  1  0   0  0  1
 xred    0.0  0.0 -0.15
         0.0  0.0  0.15
 tnons 3*0.0
 toldfe  1.e-12
 wtk 4*0.25
