
#if (prtvol==-1) stop  !after read completely the input file
#if (prtvol==-2) stop  !after read the phonon input file
#if (prtvol==-3) stop  !after assignement of the number of bands at each q point
#if (prtvol==-4) stop  !after assignement of the shells of each q point
#if (prtvol==-5) stop  !after secinit
#if (prtvol==-6) stop  !after overlap
#if (prtvol==-7) stop  !after compute Z_0
#if (prtvol==-8) stop  !after first Omega step

natom 5
nqpt 8
nwnn 3
decflg 0
irwfl 1
acell 7.55890000  7.55890000  7.55890000
allerr 0.15
alpha  0.5
tolomi 1.0d-04
nstom 10
enwdmax 400
enwdmin 200
frozflg 0
ingss

         0.000000000000    0.000000000000    0.000000000000
         0.000000000000    0.000000000000    0.000000000000
         0.000000000000    0.000000000000    0.000000000000
         0.000000000000    0.000000000000    0.000000000000
         0.000700956558    0.004055731726    0.000000000000
         0.000000000000    0.000000000000    0.000000000000
        -0.000700956558    0.000000000000    0.000450357943
         0.000000000000    0.000000000000    0.000000000000
         0.000000000000   -0.004055731726   -0.000450357943
         0.000000000000    0.000000000000    0.000000000000

         0.000000000000    0.000000000000    0.000000000000
         0.000000000000    0.000000000000    0.000000000000
         0.000000000000    0.000000000000    0.000000000000
         0.000000000000    0.000000000000    0.000000000000
         0.000241113667    0.000414991204    0.000000000000
         0.000000000000    0.000000000000    0.000000000000
        -0.000241113667    0.000000000000   -0.004112513672
         0.000000000000    0.000000000000    0.000000000000
         0.000000000000   -0.000414991204    0.004112513672
         0.000000000000    0.000000000000    0.000000000000

         0.000000000000    0.000000000000    0.000000000000
         0.000000000000    0.000000000000    0.000000000000
         0.000000000000    0.000000000000    0.000000000000
         0.000000000000    0.000000000000    0.000000000000
         0.004073529957   -0.000722457386    0.000000000000
         0.000000000000    0.000000000000    0.000000000000
        -0.004073529957    0.000000000000    0.000165925353
         0.000000000000    0.000000000000    0.000000000000
         0.000000000000    0.000722457386   -0.000165925353
         0.000000000000    0.000000000000    0.000000000000
 

localqmode 0.1000000000 0.2000000000 0.300000000000
rprim   1.00000000  0.00000000  0.00000000
  0.00000000  1.00000000  0.00000000
  0.00000000  0.00000000  1.00000000
 
trialq 0
xred
       0.00000000  0.00000000  0.00000000
       0.50000000  0.50000000  0.50000000
       0.50000000  0.50000000  0.00000000
       0.50000000  0.00000000  0.50000000
       0.00000000  0.50000000  0.50000000

znucl 82 22 8 8 8
