#   ----------------------------------------------
#   -     Input file for Abinit                  -
#   - O simple cubic , 1 special k-pt, low ecut  -
#   -                Testing GS paw energy with  -
#   -              different values of 'ortalg'  -
#   ----------------------------------------------

# 1-PAW options:
# ---------------------
  pawecutdg 15.
  pawoptmix 1
  pawmixdg  1

# 2-Datasets: changing the value of 'ortalg':
# -------------------------------------------
  ndtset 5
  ortalg1  1
  ortalg2 -1
  ortalg3  2
  ortalg4 -2
  ortalg5  3

# 3-Options for output:
# ---------------------
  prtdos 0 prtwf 0  enunit 2

# 4-Parameters governing the convergence:
# ---------------------------------------
  ecut 3.  nband 6  nline 5  ntime 5  nstep 20
  toldfe 1.d-8

# 5-Options for the choice of calculation:
# ----------------------------------------
  ixc 7  occopt 7  tsmear 0.02
  optcell 0  ionmov 0
  so_psp 1
  ortalg 1

# 6-Definition of the unit cell:
# ------------------------------
  acell 3.0 3.5 4.0
  rprim  1.4  0.0  0.0
         0.0  1.4  0.0
         0.0  0.0  1.4
  natom 1  ntypat 1
  typat 1  znucl 8.
  xred 0.00 0.00 0.00
  nsym 1

# 7-Definition of K-points :
# --------------------------
  nkpt 1  kptnrm 1  istwfk 1
  kpt 0 0 0
  wtk 1
# This line added when defaults were changed (v5.3) to keep the previous, old behaviour
  iscf 14
