#Test strain perturbation.  Si crystal, finite difference and response
#function 2DTE wrt strain are compared.

ndtset 12

#First dataset : self-consistent run with limited convergence
tolvrs1 1.0d-12

#Datasets 2-6 : finite-difference runs with strain component 1 (xx) 
# increment 0.00002

getwfk2 1
rprim2
    0.000000    0.500000    0.500000
    0.499980    0.000000    0.500000
    0.499980    0.500000    0.000000

getwfk3 1
rprim3
    0.000000    0.500000    0.500000
    0.499990    0.000000    0.500000
    0.499990    0.500000    0.000000

getwfk4 1
rprim4
    0.000000    0.500000    0.500000
    0.500000    0.000000    0.500000
    0.500000    0.500000    0.000000

getwfk5 1
rprim5
    0.000000    0.500000    0.500000
    0.500010    0.000000    0.500000
    0.500010    0.500000    0.000000

getwfk6 1
rprim6
    0.000000    0.500000    0.500000
    0.500020    0.000000    0.500000
    0.500020    0.500000    0.000000

#Datasets 7-11 : finite-difference runs with strain component 4 (yz) 
# increment 0.00002

getwfk7 1
rprim7
    0.000000    0.499990    0.499990
    0.500000   -0.000010    0.500000
    0.500000    0.500000   -0.000010

getwfk8 1
rprim8
    0.000000    0.499995    0.499995
    0.500000   -0.000005    0.500000
    0.500000    0.500000   -0.000005

getwfk9 1
rprim9
    0.000000    0.500000    0.500000
    0.500000    0.000000    0.500000
    0.500000    0.500000    0.000000

getwfk10 1
rprim10
    0.000000    0.500005    0.500005
    0.500000    0.000005    0.500000
    0.500000    0.500000    0.000005

getwfk11 1
rprim11
    0.000000    0.500010    0.500010
    0.500000    0.000010    0.500000
    0.500000    0.500000    0.000010

#Dataset 12 : response function strain perturbation calculation
  rfstrs12  3
   rfdir12  1 0 0
    nqpt12  1
     qpt12  0 0 0
  kptopt12  2
  getwfk12  4

#Common input variables
 acell  3*10.244431285 #previously optimized
 diemac 12.0
 ecut  6.0
 ecutsm  0.5
 iscf   5
 kptopt 1
 natom 2
 nband  4
 ngkpt 2 2 2 
 nloalg 3
 nshiftk 4  
 nstep  30
 ntypat 1
 prtvol  1
 rprim  0.000  0.500  0.500
        0.500  0.000  0.500
        0.500  0.500  0.000
 shiftk 0.5 0.5 0.5
        0.5 0.0 0.0
        0.0 0.5 0.0
        0.0 0.0 0.5
 tolvrs 1.0d-20
  typat 1 1
 xred    0.0   0.0   0.0  
         0.25  0.25  0.25
 znucl  14
