#Lattice parameters
#******************
    acell   3*1.0616530850E+01
    rprim   0.0 0.5 0.5
            0.5 0.0 0.5
            0.5 0.5 0.0

#Definition of the atoms
#***********************
    natom   2
   ntypat   2
    znucl   13 33
    typat   1  2
     xred   0    0    0
            0.25 0.25 0.25
      ixc   1

#k-point grid, SCF cycles and plane wave basis set
#*************************************************
     iscf   5
    nstep   100
     ecut   3
    ngkpt   2 2 2
  nshiftk   4
   shiftk   0.5 0.5 0.5
            0.5 0.0 0.0
            0.0 0.5 0.0
            0.0 0.0 0.5


ndtset 3     jdtset 1 2 3

#DATASET1 : scf calculation: GS WF in the iBZ
#*********************************************
   prtden1   1
   kptopt1   1
   toldfe1   1.0d-12

#DATASET2 : non scf calculation: GS WF in the whole BZ +
#********   Berry phase calculation of the polarization and the ddk
   getden2   1
   getwfk2   1
   kptopt2   2
     iscf2  -2
   tolwfr2   1.0d-22
    nband2   4
 berryopt2  -3
    rfdir2   1 1 1

#DATASET3 : ddE on the MP grid of k-points
#*****************************************
   getwfk3   2
   getddk3   2
    rfdir3   1 1 1
   toldfe3   1.0d-16
    nstep3   11
   rfelfd3   3
   rfphon3   1
  rfatpol3   1 2
   rfstrs3   3
    nband3   4
   kptopt3   2

nbdbuf 0
