# Aluminium structure
     acell      7.652   7.652   7.652
     rprim      0.00   0.50   0.50
                0.50   0.00   0.50
                0.50   0.50   0.00
     natom      1
      xred      0.00   0.00   0.00
    ntypat      1
     typat      1
     znucl     13.00
    occopt      3
    tsmear      0.05

# Parameters common to all runs
      ecut      6.00
    kptopt      1
     ngkpt      4      4      4
     nstep    100
    enunit      2

    ndtset      4
# Self-consistent run to get the density
      iscf1     5
    toldfe1     1.00d-6
   nshiftk1     1
    shiftk1     0.00   0.00   0.00
    istwfk1     8*1
     nband1     6

  nbandkss1     30
    npwkss1     51

# Calculation of the dielectric matrix
 optdriver2     3
 gwcalctyp2     2
    getkss2     1

     nband2    20
    npweps2    27
    npwwfn2    27

   nfreqim2     4
   nfreqre2     5
 freqremax2     1.

# Calculation of the GW corrections with PPM
 optdriver3     4
 gwcalctyp3     0
    getkss3     1
    getscr3     2

     nband3    30
    nkptgw3     2
     kptgw3     0.00   0.00   0.00
                0.50   0.50   0.00
      bdgw3     1      1
                1      2
   npwsigx3    51 
    npwwfn3    51 

# Calculation of the GW corrections without PPM
 optdriver4     4
 gwcalctyp4     2
    getkss4     1
    getscr4     2

     nband4    30
    nkptgw4     2
     kptgw4     0.00   0.00   0.00
                0.50   0.50   0.00
      bdgw4     1      2
                1      2
   npwsigx4    51 
    npwwfn4    51 

