#Positron calculation

positron 1
ixcpositron 1

acell 3*7.7925
rprim 1.0 0.0 0.0
      0.0 1.0 0.0
      0.0 0.0 1.0
ntypat 1
znucl 13
natom 4
typat 4*1 
xred
0.0 0.0 0.0
0.5 0.5 0.0
0.5 0.0 0.5
0.0 0.5 0.5
chkprim 0

ecut 12.0 
nband 1

kptopt 0
ngkpt 0. 0. 0.

nstep 20
toldfe 1.0d-9
occopt 7
tsmear 5.0d-3     
# This line added when defaults were changed (v5.3) to keep the previous, old behaviour
  iscf 5
