# Test the HGH pseudo-potentials using a molecule with Ga : the gallaborane.

 nstep 20

 acell 3*10
 ecut 10
 kpt   0 0 0
 natom  8
 nband 6
 nkpt  1
 nsym  1
 ntypat  3
 rprim   1 0 0  0 1 0  0 0 1
 symrel  1 0 0  0 1 0  0 0 1    
 toldfe 1.0d-6
 typat  1 2 3 3 3 3 3 3
 xcart
 0 0 0
 2.192 0 0
 1.437623199004281621 1.044494393323724765 0
 1.437623199004281621 -1.044494393323724765 0
 -0.6546356874363436925 0 1.40387076211977058
 -0.6546356874363436925 0 -1.40387076211977058
 2.788500000000000132 0 1.033168306714835246
 2.788500000000000132 0 -1.033168306714835246

 znucl 31 5 1

 usewvl 1
 iscf 2
 optstress 0
 optforces 0
 wvl_hgrid 0.5
 icoulomb 1
 nscforder 14
 wvl_nprccg 5

 prteig 0
