# 78pt.18.khgh

 nstep 20

 acell 3*20
 wvl_hgrid 0.45
 wvl_crmult 5
 wvl_frmult 10
 wvl_cpmult 12
 wvl_fpmult 10
 # Value not high enough, but used for quick test
 tolwfr 5e-3
 kpt   0 0 0
 natom  1
 nkpt  1
 nsym  1
 ntypat  1
 rprim   1 0 0  0 1 0  0 0 1
 symrel  1 0 0  0 1 0  0 0 1    
 typat  1
 xred
  0.5 0.5 0.5
 occopt 1
 znucl  78

 ixc 11
 optforces 0
 optstress 0
 prteig 0
 prtwf 0
 prtden 0

 usewvl 1
 icoulomb 1
 iscf 2
 nsppol 2
 nwfshist 6
 nscforder 14
 wvl_nprccg 15
