#   Si in diamond structure; 2 special points; low ecut.
# Include nonsymmorphic symmetries

 acell 3*10.26311
 diemac 12.0d0
 ecut 5.8
 enunit 2  intxc 1  irdwfk  1
 kpt   1 1 1     1 2 2   kptnrm 4
 natom  2 nband 4
 nkpt  2
 nline 3   nstep 3
 ntypat  1
 occ 4*2.0d0 occopt  0  
 rprim   0 .5 .5  .5 0 .5  .5 .5 0
 xred 3*0.00d0 3*0.25d0
 tolwfr 1.0d-12
 typat  1 1 
 wtk   1 3
 znucl 14
 nsym    48
 symrel   1  0  0   0  1  0   0  0  1      -1  0  0  -1  0  1  -1  1  0
          0 -1  1   0 -1  0   1 -1  0       0  1 -1   1  0 -1   0  0 -1
          0  0  1   1  0  0   0  1  0      -1  1  0  -1  0  0  -1  0  1
          1 -1  0   0 -1  1   0 -1  0       0  0 -1   0  1 -1   1  0 -1
          0  1  0   0  0  1   1  0  0      -1  0  1  -1  1  0  -1  0  0
          0 -1  0   1 -1  0   0 -1  1       1  0 -1   0  0 -1   0  1 -1
          0 -1  0  -1  0  0   0  0 -1       1  0 -1   1  0  0   1 -1  0
          0  1  0   0  1 -1  -1  1  0      -1  0  1   0 -1  1   0  0  1
         -1  0  0   0  0 -1   0 -1  0       1  0  0   1 -1  0   1  0 -1
          0  1 -1  -1  1  0   0  1  0       0 -1  1   0  0  1  -1  0  1
          0  0 -1   0 -1  0  -1  0  0       1 -1  0   1  0 -1   1  0  0
         -1  1  0   0  1  0   0  1 -1       0  0  1  -1  0  1   0 -1  1
         -1  0  0   0 -1  0   0  0 -1       1  0  0   1  0 -1   1 -1  0
          0  1 -1   0  1  0  -1  1  0       0 -1  1  -1  0  1   0  0  1
          0  0 -1  -1  0  0   0 -1  0       1 -1  0   1  0  0   1  0 -1
         -1  1  0   0  1 -1   0  1  0       0  0  1   0 -1  1  -1  0  1
          0 -1  0   0  0 -1  -1  0  0       1  0 -1   1 -1  0   1  0  0
          0  1  0  -1  1  0   0  1 -1      -1  0  1   0  0  1   0 -1  1
          0  1  0   1  0  0   0  0  1      -1  0  1  -1  0  0  -1  1  0
          0 -1  0   0 -1  1   1 -1  0       1  0 -1   0  1 -1   0  0 -1
          1  0  0   0  0  1   0  1  0      -1  0  0  -1  1  0  -1  0  1
          0 -1  1   1 -1  0   0 -1  0       0  1 -1   0  0 -1   1  0 -1
          0  0  1   0  1  0   1  0  0      -1  1  0  -1  0  1  -1  0  0
          1 -1  0   0 -1  0   0 -1  1       0  0 -1   1  0 -1   0  1 -1
 tnons 36*0 72*.25 36*0
# This line added when defaults were changed (v5.3) to keep the previous, old behaviour
  iscf 5
