#   Si in diamond structure; 2 special points; low ecut.

 acell 3*10.26311
 ecut 5.8
 enunit 2   intxc 1     irdwfk  1
 iscf -2   kpt   1 1 1     1 2 2   kptnrm 4
 natom  2 nband 8  nbdbuf 0
 nkpt  2
 nline 3    nstep 12
 nsym 1
 ntypat  1
 occ 4*2.0d0 occopt  0  
 rprim   0 .5 .5  .5 0 .5  .5 .5 0
 tolwfr 1.0d-12
 typat  1 1  
 wtk   1 3
 xred 3*0.00d0 3*0.25d0
 znucl 14
