#   Si in diamond structure; compute band structure at Gamma, X, and L.

 acell 3*10.26311
 ecut 5.8
 enunit 2   
 intxc  1
 irdwfk  1
 iscf -2   
 kpt   0 0 0                          # Gamma
       0 1 1   1 0 1  1 1 0           # X (different instances)
       1 1 1   0 0 1  0 1 0  1 0 0    # L (different instances)
 kptnrm 2  
 natom  2 nband 8  nbdbuf 0
 nkpt 8
 nstep 20
 nsym 1
 ntypat  1
 occ 4*2.0d0 occopt  0  
 rprim   0 .5 .5  .5 0 .5  .5 .5 0
 tolwfr 1.0d-12
 typat  1 1 
 xred 3*0.00d0 3*0.25d0
 znucl 14
