# Silicon diatomic molecule for test calculations
# Exp bond=4.244 bohr; freq=511 cm^-1 (?)
# Binggeli reports that large box (18 on side) needed to get physical answers.
 acell 12 8 8
 diemac 1.0d0
 diemix 0.333333333333d0
 ecut 7.0
 enunit 2
 intxc 1
 irdwfk  1
 isecur -2
 kpt   3*0
 natom  2 nband 5 3
 nkpt 1
 nsppol 2
 nstep 50
 nsym 1
 ntypat  1
 occ 8*1
 occopt 2
 rprim 1 0 0  0 1 0  0 0 1
 tolwfr 1.0d-12
 typat  2*1 
 wtk  1
 xcart -2.122 0 0 2.122 0 0
 znucl  14.0
