# 8-atom Si cube, low ecut, k=(111)/4 (no symm) for relaxation tests.
# forces are completely nutty with k=0

 natfix 7
 iatfix 8 7 6 5 4 3 2 

 acell 3*10.26311d0
 diemac 12.0d0
 ecut 2.99
 enunit 2  intxc 1   ionmov 2  iprcch 1 irdwfk  1
 iscf 3    kpt   1 1 1 -1 1 1 1 -1 1 1 1 -1 kptnrm 4
 natom  8 nband 16
 nkpt  4
 nline 3  nstep 80
 nsym 1
 ntime  6   ntypat  1
 occ 16*2.0d0 occopt  0   
 prtden 1 prtpot 1 prtgeo 4
 rprim   1 0 0 0 1 0 0 0 1
 tolmxf 1.0d-5
 tolwfr 1.0d-14
 typat  8*1
 wtk   4*1
   xred        .001000000000       .000000000000       .000000000000
               .250000000000       .250000000000       .250000000000
               .000000000000       .500000000000       .500000000000
               .250000000000       .750000000000       .750000000000
               .500000000000       .000000000000       .500000000000
               .750000000000       .250000000000       .750000000000
               .500000000000       .500000000000       .000000000000
               .750000000000       .750000000000       .250000000000
 znucl 14
