# Gold with one vacancy (107 atoms of gold). 

 nstep 15
 ecut   24
 ngfft 108 108 108

#The following parameters are completely irrealistic even for parallel testing
#They were used to check that the file can run correctly in sequential 
# (they lead to a 5-minute sequential run).
#To activate these, comment the three lines above.
#nstep 1    nline 1   ecut 2.5

iscf 7 npulayit 10

useylm 0 

#For the parallelisation
npband 27 npfft 4
timopt -1
fftalg 401 wfoptalg 4 fft_opt_lob 2 
iprcch 0 intxc 0

 nband 648

 acell 3*23.01
 occopt 3 tsmear 0.002 
 enunit 2    #sorties dans toutes les unites
 nkpt 1 istwfk 1

 rprim  1. 0. 0.
        0. 1. 0. 
        0. 0. 1. 
 toldfe 1.e-7
 znucl  79.0

 natom  107 ntypat 1 typat  107*1
#total number of atoms= 107
      xred    0.0000000000E+00  1.6326095981E-01  1.6326095981E-01
              1.6326095981E-01  0.0000000000E+00  1.6326095981E-01
              1.6326095981E-01  1.6326095981E-01  0.0000000000E+00
              0.0000000000E+00  1.6641506689E-01  5.0000000000E-01
              1.6641506689E-01  0.0000000000E+00  5.0000000000E-01
              1.6596912386E-01  1.6596912386E-01  3.3213568011E-01
              0.0000000000E+00  0.0000000000E+00  3.3251308046E-01
              0.0000000000E+00  1.6326095981E-01  8.3673904019E-01
              1.6326095981E-01  0.0000000000E+00  8.3673904019E-01
              1.6596912386E-01  1.6596912386E-01  6.6786431989E-01
              0.0000000000E+00  0.0000000000E+00  6.6748691954E-01
              0.0000000000E+00  5.0000000000E-01  1.6641506689E-01
              1.6596912386E-01  3.3213568011E-01  1.6596912386E-01
              1.6641506689E-01  5.0000000000E-01  0.0000000000E+00
              0.0000000000E+00  3.3251308046E-01  0.0000000000E+00
              0.0000000000E+00  5.0000000000E-01  5.0000000000E-01
              1.6649623194E-01  3.3291657817E-01  5.0000000000E-01
              1.6649623194E-01  5.0000000000E-01  3.3291657817E-01
              0.0000000000E+00  3.3314040855E-01  3.3314040855E-01
              0.0000000000E+00  5.0000000000E-01  8.3358493311E-01
              1.6596912386E-01  3.3213568011E-01  8.3403087614E-01
              1.6649623194E-01  5.0000000000E-01  6.6708342183E-01
              0.0000000000E+00  3.3314040855E-01  6.6685959145E-01
              0.0000000000E+00  8.3673904019E-01  1.6326095981E-01
              1.6596912386E-01  6.6786431989E-01  1.6596912386E-01
              1.6326095981E-01  8.3673904019E-01  0.0000000000E+00
              0.0000000000E+00  6.6748691954E-01  0.0000000000E+00
              0.0000000000E+00  8.3358493311E-01  5.0000000000E-01
              1.6649623194E-01  6.6708342183E-01  5.0000000000E-01
              1.6596912386E-01  8.3403087614E-01  3.3213568011E-01
              0.0000000000E+00  6.6685959145E-01  3.3314040855E-01
              0.0000000000E+00  8.3673904019E-01  8.3673904019E-01
              1.6596912386E-01  6.6786431989E-01  8.3403087614E-01
              1.6596912386E-01  8.3403087614E-01  6.6786431989E-01
              0.0000000000E+00  6.6685959145E-01  6.6685959145E-01
              3.3213568011E-01  1.6596912386E-01  1.6596912386E-01
              5.0000000000E-01  0.0000000000E+00  1.6641506689E-01
              5.0000000000E-01  1.6641506689E-01  0.0000000000E+00
              3.3251308046E-01  0.0000000000E+00  0.0000000000E+00
              3.3291657817E-01  1.6649623194E-01  5.0000000000E-01
              5.0000000000E-01  0.0000000000E+00  5.0000000000E-01
              5.0000000000E-01  1.6649623194E-01  3.3291657817E-01
              3.3314040855E-01  0.0000000000E+00  3.3314040855E-01
              3.3213568011E-01  1.6596912386E-01  8.3403087614E-01
              5.0000000000E-01  0.0000000000E+00  8.3358493311E-01
              5.0000000000E-01  1.6649623194E-01  6.6708342183E-01
              3.3314040855E-01  0.0000000000E+00  6.6685959145E-01
              3.3291657817E-01  5.0000000000E-01  1.6649623194E-01
              5.0000000000E-01  3.3291657817E-01  1.6649623194E-01
              5.0000000000E-01  5.0000000000E-01  0.0000000000E+00
              3.3314040855E-01  3.3314040855E-01  0.0000000000E+00
              3.3316116420E-01  5.0000000000E-01  5.0000000000E-01
              5.0000000000E-01  3.3316116420E-01  5.0000000000E-01
              5.0000000000E-01  5.0000000000E-01  3.3316116420E-01
              3.3302887829E-01  3.3302887829E-01  3.3302887829E-01
              3.3291657817E-01  5.0000000000E-01  8.3350376806E-01
              5.0000000000E-01  3.3291657817E-01  8.3350376806E-01
              5.0000000000E-01  5.0000000000E-01  6.6683883580E-01
              3.3302887829E-01  3.3302887829E-01  6.6697112171E-01
              3.3213568011E-01  8.3403087614E-01  1.6596912386E-01
              5.0000000000E-01  6.6708342183E-01  1.6649623194E-01
              5.0000000000E-01  8.3358493311E-01  0.0000000000E+00
              3.3314040855E-01  6.6685959145E-01  0.0000000000E+00
              3.3291657817E-01  8.3350376806E-01  5.0000000000E-01
              5.0000000000E-01  6.6683883580E-01  5.0000000000E-01
              5.0000000000E-01  8.3350376806E-01  3.3291657817E-01
              3.3302887829E-01  6.6697112171E-01  3.3302887829E-01
              3.3213568011E-01  8.3403087614E-01  8.3403087614E-01
              5.0000000000E-01  6.6708342183E-01  8.3350376806E-01
              5.0000000000E-01  8.3350376806E-01  6.6708342183E-01
              3.3302887829E-01  6.6697112171E-01  6.6697112171E-01
              6.6786431989E-01  1.6596912386E-01  1.6596912386E-01
              8.3673904019E-01  0.0000000000E+00  1.6326095981E-01
              8.3673904019E-01  1.6326095981E-01  0.0000000000E+00
              6.6748691954E-01  0.0000000000E+00  0.0000000000E+00
              6.6708342183E-01  1.6649623194E-01  5.0000000000E-01
              8.3358493311E-01  0.0000000000E+00  5.0000000000E-01
              8.3403087614E-01  1.6596912386E-01  3.3213568011E-01
              6.6685959145E-01  0.0000000000E+00  3.3314040855E-01
              6.6786431989E-01  1.6596912386E-01  8.3403087614E-01
              8.3673904019E-01  0.0000000000E+00  8.3673904019E-01
              8.3403087614E-01  1.6596912386E-01  6.6786431989E-01
              6.6685959145E-01  0.0000000000E+00  6.6685959145E-01
              6.6708342183E-01  5.0000000000E-01  1.6649623194E-01
              8.3403087614E-01  3.3213568011E-01  1.6596912386E-01
              8.3358493311E-01  5.0000000000E-01  0.0000000000E+00
              6.6685959145E-01  3.3314040855E-01  0.0000000000E+00
              6.6683883580E-01  5.0000000000E-01  5.0000000000E-01
              8.3350376806E-01  3.3291657817E-01  5.0000000000E-01
              8.3350376806E-01  5.0000000000E-01  3.3291657817E-01
              6.6697112171E-01  3.3302887829E-01  3.3302887829E-01
              6.6708342183E-01  5.0000000000E-01  8.3350376806E-01
              8.3403087614E-01  3.3213568011E-01  8.3403087614E-01
              8.3350376806E-01  5.0000000000E-01  6.6708342183E-01
              6.6697112171E-01  3.3302887829E-01  6.6697112171E-01
              6.6786431989E-01  8.3403087614E-01  1.6596912386E-01
              8.3403087614E-01  6.6786431989E-01  1.6596912386E-01
              8.3673904019E-01  8.3673904019E-01  0.0000000000E+00
              6.6685959145E-01  6.6685959145E-01  0.0000000000E+00
              6.6708342183E-01  8.3350376806E-01  5.0000000000E-01
              8.3350376806E-01  6.6708342183E-01  5.0000000000E-01
              8.3403087614E-01  8.3403087614E-01  3.3213568011E-01
              6.6697112171E-01  6.6697112171E-01  3.3302887829E-01
              6.6786431989E-01  8.3403087614E-01  8.3403087614E-01
              8.3403087614E-01  6.6786431989E-01  8.3403087614E-01
              8.3403087614E-01  8.3403087614E-01  6.6786431989E-01
              6.6697112171E-01  6.6697112171E-01  6.6697112171E-01
