# FCC Fe 
# Test the parallelism over the spins, k points and bands
# If ndtset=2, perform the computation of the Gamma dynamical matrix.

 ndtset 1    # Uncomment this line
#ndtset 2    #        or this line

#Dataset 1 : SCF 
  kptopt1  1
  tolvrs1  1.0d-13
 
#Dataset 2 : RF at q=0 0 0   (this is always needed for IFCs)

  getwfk2  1
  kptopt2  2
    nqpt2  1
     qpt2  0.0 0.0 0.0
 rfatpol2  1 1
   rfdir2  1 1 1
  rfphon2  1
  tolvrs2  1.0d-5

#Common data

 ngkpt 12 12 12     # 12 12 12   gives nkpt=182 for dataset 1
                    # Other possible values :  8  8  8  (giving nkpt=60 for dataset 1)
                    #                         16 16 16  (nkpt will be on the order of 500)

 ecut 35
 acell 3*7.00  

 ixc    1
 natom  1 
 nband 12
 nline 5
 nsppol 2
 spinat 0.0 0.0 3.0
 nstep 30
 ntypat  1
 occopt 7
 rprim   0 .5 .5  .5 0 .5  .5 .5 0
 nshiftk 4
 shiftk 0.5 0.5 0.5
        0.5 0.0 0.0
        0.0 0.5 0.0
        0.0 0.0 0.5
 timopt 2
 typat  1 
 xred  0.0 0.0 0.0
 znucl 26.0

