#   FCC Al; 10 special points

#timopt -1

 acell 3*7.56
 densty 1.2
 ecut 10

 enunit 2  

 kptopt 1
 localrdwf 1
 nkpt 10
 ngkpt 4 4 4 
 nshiftk 4
 shiftk 0.5 0.5 0.5
        0.5 0.0 0.0
        0.0 0.5 0.0
        0.0 0.0 0.5

 natom  1 nband 6
 nline 3  nstep 20
 ntypat  1
 occopt  4  prtden 1   prtvol 10
 rprim   0 .5 .5  .5 0 .5  .5 .5 0
 timopt 2
 tnons   72*0.0d0
 tolvrs 1.0d-18
 typat  1  
 xred  0.0 0.0 0.0
 znucl 13.0

# This line added when defaults were changed (v5.3) to keep the previous, old behaviour
  iscf 5
