#   FCC Al; non-selfconsistent computation of wavefunctions

 istatr 999

 ndtset 2

 iscf  -2
 nqpt1  0
 nqpt2  1
 qpt2   0.25 -0.125 0.125

 acell 3*7.56
 densty 1.2

 ecut 10

 enunit 2  

 kptopt 3
 localrdwf 1
 nkpt 256
 ngkpt 4 4 4   
 nshiftk 4
 shiftk 0.5 0.5 0.5
        0.5 0.0 0.0
        0.0 0.5 0.0
        0.0 0.0 0.5 

 natom  1 nband 5  nbdbuf 0
 nstep 20
 ntypat  1
 occopt  4 
 prteig 1
 rprim   0 .5 .5  .5 0 .5  .5 .5 0
 timopt 2
 tolwfr 1.0d-18
 typat  1  
 xred  0.0 0.0 0.0
 znucl 13.0

