#   FCC Al; phonon at 1/4 1/8 1/8

 istatr 1000
 irdwfk 1
 irdwfq 1

 nbdbuf 3
 rfphon 1
 rfatpol 1 1
 rfdir  1 1 1
 nqpt   1
 qpt    0.25 -0.125 0.125

 acell 3*7.56
 densty 1.2

 ecut 10

 enunit 2  

 kptopt 3
 localrdwf 1
 nkpt 256
 ngkpt 4 4 4  
 nshiftk 4
 shiftk 0.5 0.5 0.5
        0.5 0.0 0.0
        0.0 0.5 0.0
        0.0 0.0 0.5 

 natom  1 nband 5

 nstep 20

 ntypat  1
 amu    26.96
 occopt  4 
 rprim   0 .5 .5  .5 0 .5  .5 .5 0
 timopt 2
 tolvrs 1.0d-10
 typat  1  
 xred  0.0 0.0 0.0
 znucl 13.0

# This line added when defaults were changed (v5.3) to keep the previous, old behaviour
  iscf 5
