# FCC Fe (for fun)
# Perform the computation of the Gamma dynamical matrix.
# Test the parallelism over the spins and k points

 ndtset 2

#Dataset 1 : SCF 
  kptopt1  1
  tolvrs1  1.0d-13
 
#Dataset 2 : RF at q=0 0 0   (this is always needed for IFCs)

  getwfk2  1
  kptopt2  2
    nqpt2  1
     qpt2  0.0 0.0 0.0
 rfatpol2  1 1
   rfdir2  1 1 1
  rfphon2  1
  tolvrs2  1.0d-5

#Common data

 ngkpt  2 2 2    

 ecut 18
 acell 3*7.00  

 ixc    1
 natom  1 
 nband 10
 nline 5
 nsppol 2
 spinat 0.0 0.0 3.0
 nstep 30
 ntypat  1
 occopt 7
 rprim   0 .5 .5  .5 0 .5  .5 .5 0
 nshiftk 4
 shiftk 0.5 0.5 0.5
        0.5 0.0 0.0
        0.0 0.5 0.0
        0.0 0.0 0.5
 timopt 2
 typat  1 
 xred  0.0 0.0 0.0
 znucl 26.0

# This line added when defaults were changed (v5.3) to keep the previous, old behaviour
  iscf 5
