#test GaAs crystal, with small ecut.
#note that localrdwf=1

 ndtset 4

#DATASET 1 : SC run with 2 kpoints
  prtden1  1     
    nqpt1  0
    nkpt1  2
  kptopt1  1
  tolwfr1  1.0d-22

#DATASET 2 : NSC run with 16 kpoints, without q-wavevector shift
   iscf2  -2     
   nqpt2   0    
 getwfk2   1   
 getden2   1
 tolwfr2   1.0d-22

#DATASET 3 : ddk perturbation (only the x direction is needed,
#thanks to the use of symmetries)
 getwfk3   2
   iscf3  -3     
   nqpt3   1   
    qpt3   0.0d0 0.0d0 0.0d0
  rfdir3   1 0 0
 rfelfd3   2
 tolwfr3   1.0d-22

#DATASET 4 : phonon and electric field perturbations 
  diemix4   0.7
  diemac4   1.0
  getddk4   3
  getwfk4   2
    iscf4   3
    nqpt4   1                             
     qpt4   0.0d0 0.0d0 0.0d0
 rfatpol4   1 2 
   rfdir4   1 1 1
  rfelfd4   3
  rfphon4   1
  tolwfr4   1.0d-16

#Common data
 nkpt 16
 ngkpt 2 2 2 
 nshiftk 4
 shiftk 0.5 0.5 0.5
        0.5 0.0 0.0
        0.0 0.5 0.0
        0.0 0.0 0.5
 kptopt 2
 acell   3*10.60
 amu 69.72  74.9216
 ecut 1.00
 getden 0
 iscf 3
 ixc 3
 localrdwf 1
 natom  2 nband 4  nbdbuf 0
 nstep 40
 mkmem 0  mkqmem 0  mk1mem 0

 nsym  24 ntypat  2
 occopt 1
 rprim   0 .5 .5  .5 0 .5  .5 .5 0
 symrel  1  0  0   0  1  0   0  0  1
  0  1 -1   1  0 -1   0  0 -1
  0 -1  1   0 -1  0   1 -1  0
 -1  0  0  -1  0  1  -1  1  0
  0  1  0   0  0  1   1  0  0
  1  0 -1   0  0 -1   0  1 -1
  0 -1  0   1 -1  0   0 -1  1
 -1  0  1  -1  1  0  -1  0  0
  0  0  1   1  0  0   0  1  0
  0  0 -1   0  1 -1   1  0 -1
  1 -1  0   0 -1  1   0 -1  0
 -1  1  0  -1  0  0  -1  0  1
  1  0 -1   0  1 -1   0  0 -1
  0  1  0   1  0  0   0  0  1
 -1  0  1  -1  0  0  -1  1  0
  0 -1  0   0 -1  1   1 -1  0
 -1  1  0  -1  0  1  -1  0  0
  1 -1  0   0 -1  0   0 -1  1
  0  0 -1   1  0 -1   0  1 -1
  0  0  1   0  1  0   1  0  0
  0 -1  1   1 -1  0   0 -1  0
 -1  0  0  -1  1  0  -1  0  1
  1  0  0   0  0  1   0  1  0
  0  1 -1   0  0 -1   1  0 -1
 xred 3*0.00d0 3*0.25d0
 timopt 2
 tnons 72*0.0
 typat  1 2  
 znucl  31 33
