 istatr 8
 istatshft 6

# Crystalline Si3N4 beta
#

chkprim 1

acell 7.605930000 7.605930000 2.9091200 angstrom

# Definition of the unit cell
rprim
 0.500000000 -0.866025403784439 0.0000000000
 0.500000000  0.866025403784439 0.0000000000
 0.000000000  0.000000000000000 1.0000000000

# Definition of the atom types
ntypat 2                # number of types of atom
znucl 7 14             # nucleonnumber for atoms 

# Definition of the atoms
natom 14               # There are two atoms
typat 1  1  1  1  1  1  1  1  2  2  2  2  2  2
xred
  1/3               2/3               1/4
  1/3               0.03230000000000  1/4
  2/3               1/3               3/4
  3.0103333700E-01  1/3               3/4
  9.6770000000E-01  3.0103333700E-01  1/4
  2/3               9.6770000000E-01  3/4
  6.9896666300E-01  2/3               1/4
  3.2300000000E-02  6.9896666300E-01  3/4
  7.6770000000E-01  5.9040000000E-01  3/4
  0.17730000000000  0.76770000000000  1/4
  4.0960000000E-01  1.7730000000E-01  3/4
  2.3230000000E-01  4.0960000000E-01  1/4
  8.2270000000E-01  2.3230000000E-01  3/4
  5.9040000000E-01  8.2270000000E-01  1/4


#######################################################################
# Energy conditions
#

#Definition of the planewave basis set
ecut    30.0           # Maximal kinetic energy cut-off, in Hartree


#Definition of the SCF procedure

# number of bands occu and unoccu
nband 56

###############################################################################
###############################################################################

kptopt  1              # full k-symmetry / calc in irreducible brio zone
#ngkpt   2 2 1
ngkpt   1 1 1
iscf    5                 # SCF cycle, CG based on the minim. of the energy


occopt  1              # gaussian smearing 
toldfe  1.0d-06         # 
nstep 100              # Maximal number of SCF cycles
prtden  0

# do g-parallelism
gpara 1

# choose htor's implementation
wfoptalg 100

# istwfk 1 is still necessary :-(
istwfk 1

# debug
prtvol 10
