 ngfft 18 18 18
 ngfftdg 36 36 36
 ndtset 9 jdtset 1 2 3 4 5 6 7 8 9

 occopt1 0
 nkpt1 1 istwfk1 1 toldfe1 1.0d-10
 iscf1 17

 occopt2 7 tsmear2 0.001
 nkpt2 1 istwfk2 1 toldfe2 1.0d-10
 iscf2 17

 occopt3 0
 kptopt3 1 kptrlatt3 4 0 0 0 4 0 0 0 4 istwfk3 30*1
 nshiftk3 4 shiftk3 1/2 1/2 1/2 1/2 0.0 0.0 0.0 1/2 0.0 0.0 0.0 1/2
 toldfe3 1.0d-10
 iscf3 17

 occopt4 7 tsmear4 0.001
 kptopt4 1 kptrlatt4 4 0 0 0 4 0 0 0 4 istwfk4 30*1
 nshiftk4 4 shiftk4 1/2 1/2 1/2 1/2 0.0 0.0 0.0 1/2 0.0 0.0 0.0 1/2
 toldfe4 1.0d-10
 iscf4 17

 occopt5 0
 nkpt5 1 istwfk5 1
 ionmov5 3 ntime5 3 toldff5 1.0d-6 tolmxf5 1.0d-5
 iscf5 7

 occopt6 7 tsmear6 0.001
 nkpt6 1 istwfk6 1
 ionmov6 3 ntime6 3 toldff6 1.0d-6 tolmxf6 1.0d-5
 iscf6 17

 occopt7 0
 kptopt7 1 kptrlatt7 4 0 0 0 4 0 0 0 4 istwfk7 30*1
 nshiftk7 4 shiftk7 1/2 1/2 1/2 1/2 0.0 0.0 0.0 1/2 0.0 0.0 0.0 1/2
 ionmov7 3 ntime7 3 toldff7 1.0d-7 tolmxf7 1.0d-5
 optcell7 1 ecutsm7 0.5 dilatmx7 1.1
 iscf7 17

 occopt8 7 tsmear8 0.001
 kptopt8 1 kptrlatt8 4 0 0 0 4 0 0 0 4 istwfk8 30*1
 nshiftk8 4 shiftk8 1/2 1/2 1/2 1/2 0.0 0.0 0.0 1/2 0.0 0.0 0.0 1/2
 ionmov8 3 ntime8 3 toldff8 1.0d-7 tolmxf8 1.0d-5
 optcell8 1 ecutsm8 0.5 dilatmx8 1.1
 iscf8 17

 occopt9 1
 nkpt9 1 istwfk9 1 toldfe9 1.0d-10 nsppol9 2 ixc9 1
 iscf9 17

 nstep 5    # For testing purpose only
 ecut 16. pawecutdg 50. diemac 12.0d0  enunit 2
 ixc 2
 acell 3*7.0
 rprim 0.0 0.5 0.5
       0.5 0.0 0.5
       0.5 0.5 0.0
 xred 0.0  0.0  0.0
      0.22 0.22 0.22
 znucl 6
 nband 12 occ 4*2 8*0
 ntypat 1 typat 1 1  natom 2
 timopt 0
 #nsym 0
 fftalg 401 wfoptalg 4 fft_opt_lob 2 nloalg 2
 iprcch 0 intxc 0
 npkpt 1
 npband 2
 npfft 2
 paral_kgb 1
 pawmixdg 1

