#Print the density and the wf in parallel in the first dataset
#then read it. Run in parallel using accesswf=1
pawprtvol 1
pawecutdg 45.
nloalg 4
pawmixdg 1
nline 13
nsppol 2
spinat 0.0 0.0 1.0 0.0 0.0 1.0
ndtset 3
prtden1 1
getden3 -1
getwfk2 -1
getden4 -1
getwfk4 -1
accesswff 1
#------------------------------------------------------
# A simple calculation on silicon
occopt 7 tsmear 0.001
kptopt 1
kptrlatt 1 0 0 0 2 0 0 0 1
istwfk 4*1
nshift 4 shiftk 1/2 1/2 1/2 1/2 0.0 0.0 0.0 1/2 0.0 0.0 0.0 1/2
toldff 1.e-7 tolmxf 1.0d-5
nstep 21
ecut 10.0 diemac 12.0 enunit 2
ngfft 12 12 12
 ixc 1
 acell 3*10.366
 rprim 0.0 0.5 0.5
       0.5 0.0 0.5
       0.5 0.5 0.0
 xred 0.0  0.0  0.0
      0.22 0.22 0.22
 znucl 6
 nband 12
 ntypat 1 typat 1 1  natom 2
 nsym 0
 fftalg 401 wfoptalg 4 fft_opt_lob 2
 iprcch 0 intxc 0
 npkpt 1
 npband 2
 npfft 2
 paral_kgb 1
 time -1

