# Silicon structure
     acell     10.263  10.263  10.263
     rprim      0.00   0.50   0.50
                0.50   0.00   0.50
                0.50   0.50   0.00
     natom      2
      xred      0.00   0.00   0.00
                0.25   0.25   0.25
    ntypat      1
     typat      1      1
     znucl     14.00
 symmorphi      0

# Parallelism options
#
#  paral_kgb  1
#    npband   1
#     npfft   1
#     npkpt   2
#     nproc   2
#
##  localdrwf   0
#   wfoptalg   4
#     nloalg   4
#   fftalg   401
#     iprcch   4
#  fft_opt_lob 2

# Parameters common to all runs
      ecut      4.00
    kptopt      1
     ngkpt      4      4      4
     nstep     20
    enunit      2

    ndtset      3
# Self-consistent run to get the density
      iscf1     5
    toldfe1     1.0d-8
   nshiftk1     1
    shiftk1     0.00   0.00   0.00
    istwfk1     8*1
     nband1    10

   kssform1     3
  nbandkss1    10
    npwkss1    27

     gwpara     2
# Calculation of the dielectric matrix - iteration 1
 optdriver2     3
 gwcalctyp2     2
    getkss2     1

     nband2    10
    npweps2    27 
    npwwfn2    27
   nfreqim2     4
   nfreqre2     8
 freqremax2     1.
# Calculation of the noPPM GW corrections - iteration 1
 optdriver3     4
 gwcalctyp3     2
    getkss3     1
    getscr3     2
     nband3    10
   npwsigx3    27 
    npwwfn3    27 

#Common to all model GW calculations
   rhoqpmix     0.5
     nkptgw     8
      kptgw     
              0.00000000E+00  0.00000000E+00  0.00000000E+00
              2.50000000E-01  0.00000000E+00  0.00000000E+00
              5.00000000E-01  0.00000000E+00  0.00000000E+00
              2.50000000E-01  2.50000000E-01  0.00000000E+00
              5.00000000E-01  2.50000000E-01  0.00000000E+00
             -2.50000000E-01  2.50000000E-01  0.00000000E+00
              5.00000000E-01  5.00000000E-01  0.00000000E+00
             -2.50000000E-01  5.00000000E-01  2.50000000E-01
       bdgw   
              1 8
              1 8
              1 8
              1 8
              1 8
              1 8
              1 8
              1 8

