#   FCC He; 2 special points

 acell 3*6.505
 diemac 1.0d0
 diemix 0.5d0
 ecut 50
 enunit 2  
 intxc 1
 ixc 11   kpt   1 1 1     1 2 2   kptnrm 4
 natom  1 nband 1
 nkpt  2
 nline 3  nstep 14
 nsym  24 ntypat  1
 prtvol 10
 rprim   0 .5 .5  .5 0 .5  .5 .5 0
 symrel
       1  0  0    0  1  0    0  0  1    
       0  1 -1    1  0 -1    0  0 -1    
      -1  0  0   -1  0  1   -1  1  0    
       0 -1  1    0 -1  0    1 -1  0    
      -1  0  1   -1  0  0   -1  1  0
       0 -1  0    0 -1  1    1 -1  0
       0 -1  1    1 -1  0    0 -1  0
       0  1 -1    0  0 -1    1  0 -1
       0  0 -1    1  0 -1    0  1 -1
      -1  1  0   -1  0  1   -1  0  0
       1  0 -1    0  1 -1    0  0 -1    
       1 -1  0    0 -1  0    0 -1  1    
      -1  0  0   -1  1  0   -1  0  1    
       0  1  0    1  0  0    0  0  1    
       0  0  1    0  1  0    1  0  0    
       1  0  0    0  0  1    0  1  0    
       0  0  1    1  0  0    0  1  0    
       0  1  0    0  0  1    1  0  0    
      -1  0  1   -1  1  0   -1  0  0
       0  0 -1    0  1 -1    1  0 -1
       1  0 -1    0  0 -1    0  1 -1
       1 -1  0    0 -1  1    0 -1  0
       0 -1  0    1 -1  0    0 -1  1
      -1  1  0   -1  0  0   -1  0  1
 tnons   72*0.0d0
 tolwfr 1.d-16
 typat  1  
 wtk   1 3
 xred  0.0 0.0 0.0
 znucl 2.0

# This line added when defaults were changed (v5.3) to keep the previous, old behaviour
  iscf 5
