#   Si in Box : comparison with the result of Corning code (LLN version).

 acell 3*6
 diemac 1.0d0
 diemix 1.0d0
 ecut 5
 enunit 2  
 ixc 3   kpt   0.25 0.25 0.25   kptnrm 1
 natom  1 nband 4
 nkpt  1
 nline 3  nstep 25
 nsym  8 ntypat  1
 occopt 0 occ 1*2.0d0 3*0.66666666666666666666666d0  
 prtvol 10
 rprim  1 0 0 0 1 0 0 0 1 
 symrel
       1  0  0    0  1  0    0  0  1    
      -1  0  0    0  1  0    0  0  1
       1  0  0    0 -1  0    0  0  1
       1  0  0    0  1  0    0  0 -1
      -1  0  0    0 -1  0    0  0  1
      -1  0  0    0  1  0    0  0 -1
       1  0  0    0 -1  0    0  0 -1
      -1  0  0    0 -1  0    0  0 -1       
 tnons  24*0d0
 tolwfr 1.0d-16
 typat  1  
 wtk   1 
 xred  0.5 0.5 0.5
 znucl 14

# This line added when defaults were changed (v5.3) to keep the previous, old behaviour
  iscf 5
