# Hydrogen diatomic molecule --broyden minimization. acell much too small.
# Multidataset testing : different k-points, with getxcart and getwfk
# This is to determine the optimal xred, at different nkpt : convergence study.
# Note that mkmem==0, unlike the preceeding test.

 ndtset 2      getxcart -1   getwfk -1

 nkpt1  1    kptnrm1  4  
     kpt1  1 1 1  
     wtk1  1  
 nkpt2  4    kptnrm2  8
     kpt2  1 1 1    1 1 3    1 3 3    3 3 3
     wtk2  1        3        3        1

 acell  7 5 5
 diemac 1.0d0   diemix 0.5d0
 ecut  12
 ionmov  2 
 iprcch 1
 mkmem  0
 natom  2 
 nband 1

 nline 3   nstep 10
 nsym 8 ntime  5 ntypat  1
 occ 2
 occopt 0
 rprim 1 0 0  0 1 0  0 0 1
 symrel  1  0  0   0  1  0   0  0  1
        -1  0  0   0  1  0   0  0  1
         1  0  0   0 -1  0   0  0  1
        -1  0  0   0 -1  0   0  0  1
         1  0  0   0  1  0   0  0 -1
        -1  0  0   0  1  0   0  0 -1
         1  0  0   0 -1  0   0  0 -1
        -1  0  0   0 -1  0   0  0 -1
 tnons 24*0
 toldff 5.0d-6
 tolmxf 5.0d-5
 typat  2*1 
 wtk  1
 xangst -0.385 0 0   0.385  0 0
 znucl  1.0
# This line added when defaults were changed (v5.3) to keep the previous, old behaviour
  iscf 5
