#   Bi-dimensional Mg; 1 special points, no symmetries, 
#   treated like a semi-conductor. Impose interlayer distance, let
#   optimize in the plane.

 acell  10.0  5.0  5.2  
#acell  5.2  10.0  5.0      # This file was also used to test optcell=8 and 9
#acell  5.0  5.2   10.0

 dilatmx 1.05
 ecut 3
 ecutsm 1.0
 intxc 1
 ionmov 2
 optcell 7
#optcell 8
#optcell 9

 iscf 3
 kpt  0.0 0.0 0.0 

 natom  1 nband 1  nkpt 1
 nline 3  nstep 8  nsym 1  ntime 15
 ntypat  1
 occopt  1  
 rprim   1.0  0.0 0.0
         0.0  1.0 0.0
         0.0 -0.6 0.8
#rprim   0.8  0.0 -0.6 
#        0.0  1.0  0.0
#        0.0  0.0  1.0
#rprim   1.0  0.0  0.0
#       -0.6  0.8  0.0
#        0.0  0.0  1.0


 toldfe  1.0d-10
 tolmxf 5.d-6
 typat  1 
 wtk 1*1
 xred  0.0 0.0 0.0
 znucl 12.0

