# single Mg atom, test of fftalg and istwfk
# Test many combinations, using the double-loop multi-dataset mode

ndtset 63   udtset 7 9  
 
kpt1?  0.5 0.0 0.0
kpt2?  0.0 0.0 0.5
kpt3?  0.5 0.0 0.5
kpt4?  0.0 0.5 0.0
kpt5?  0.5 0.5 0.0
kpt6?  0.0 0.5 0.5
kpt7?  0.5 0.5 0.5

getwfk?:  0    getwfk?+ -1

 fftalg?1  112    istwfk?1  0   
 fftalg?2  112    istwfk?2  1  
 fftalg?3  111    istwfk?3  1 
 fftalg?4  111    istwfk?4  0  
 fftalg?5  110    istwfk?5  0
 fftalg?6  110    istwfk?6  1
 fftalg?7  100    istwfk?7  1
 fftalg?8  112    istwfk?8  0   nstep?8  0
 fftalg?9  112    istwfk?9  1   nstep?9  0

# Common input variables
acell 3*10
diemac 1.0d0
diemix 1.0d0
ecut 2
intxc 1

natom 1
nband 1
nkpt 1
nline 3 
nstep 20 
nsym 1
ntypat 1
occopt 1
rprim 1 0 0 0 1 0 0 0 1
tolwfr 1.0d-14
typat 1 
xred 0.1  0.15  0.2
wtk 1 znucl 12
# This line added when defaults were changed (v5.3) to keep the previous, old behaviour
  iscf 5
