# Crazy Si cell with 4 atoms.
# Used to test the generation of symmetry matrices from 
# input spatial group

# checks several orientation into an orthorhombic space group

 ndtset 4

 spgaxor1 1
 spgaxor2 3
 spgaxor3 5
 spgaxor4 7 
 
 spgroup 62

#common declarations

 natom 8 
 acell 3*10.26311 
 rprim 1 0 0  0 1 0  0 0 1
 diemac 12.d0
 ecut 1.00
 enunit 2  
 intxc 1
 iscf 3   kpt 0 0 0   kptnrm 1
 natrd 1
 nband 16
 nkpt  1
 nline 1   
 nstep 1 
 ntypat  1
 occopt  1  
 prtvol 10
 tolwfr 1.0d-13
 wtk   1
   xred        .1       .2       .3
 znucl 14
